# Solution for model GasLib-40
# Objective value = 1.3158139796484233e+01
loadshed[innode_1] 0
loadshed[innode_2] 0
loadshed[innode_3] 0
loadshed[innode_4] 0
loadshed[innode_5] 0
loadshed[innode_6] 0
loadshed[innode_7] 0
loadshed[innode_8] 0
loadshed[source_1] -2.2095525600119648e-01
loadshed[source_2] 1.0822457550161979e-01
loadshed[source_3] 1.9596248944709238e-01
loadshed[sink_1] 0
loadshed[sink_2] 0
loadshed[sink_3] 0
loadshed[sink_4] 0
loadshed[sink_5] 0
loadshed[sink_6] 0
loadshed[sink_7] 0
loadshed[sink_8] 0
loadshed[sink_9] 0
loadshed[sink_10] 0
loadshed[sink_11] 0
loadshed[sink_12] 8.0457415316081926e-01
loadshed[sink_13] 0
loadshed[sink_14] 0
loadshed[sink_15] 0
loadshed[sink_16] 0
loadshed[sink_17] 0
loadshed[sink_18] 0
loadshed[sink_19] 0
loadshed[sink_20] 0
loadshed[sink_21] 0
loadshed[sink_22] 0
loadshed[sink_23] 0
loadshed[sink_24] 0
loadshed[sink_25] 0
loadshed[sink_26] 0
loadshed[sink_27] 0
loadshed[sink_28] 0
loadshed[sink_29] 0
flow[source_1,sink_3] 1.9302115557546693e+02
flow[innode_1,sink_16] 1.6354166666666970e+01
flow[innode_6,sink_13] -1.2631346720394802e+01
flow[sink_13,sink_14] -2.8985513387061470e+01
flow[sink_14,sink_10] -4.5339680053728138e+01
flow[sink_25,sink_26] 181.367297214561
flow[sink_26,sink_9] 1.5038352687018329e+02
flow[sink_9,sink_18] 1.3402936020351663e+02
flow[sink_26,sink_4] 1.4629603677711657e+01
flow[sink_4,sink_20] -3.4432896322289821e+01
flow[sink_18,sink_6] 1.1767519353684997e+02
flow[sink_25,innode_8] -1.6031282224213058e+02
flow[sink_6,sink_7] 6.8612693536849292e+01
flow[sink_6,sink_22] 3.2708333333333641e+01
flow[sink_7,sink_24] 3.5904360203515772e+01
flow[sink_22,sink_1] 1.6354166666666970e+01
flow[sink_24,sink_21] 1.9550193536849104e+01
flow[sink_21,sink_12] 3.1960268701824361e+00
flow[sink_7,sink_5] 1.6354166666667368e+01
flow[sink_5,sink_17] 0
flow[sink_17,sink_4] -3.2708333333335005e+01
flow[sink_17,sink_8] 1.6354166666668334e+01
flow[sink_3,sink_23] 16.3541666666697
flow[sink_8,sink_20] 0
flow[sink_25,sink_20] 5.0787062988956677e+01
flow[sink_25,sink_15] -75.5643579076603
flow[sink_15,sink_29] -9.1918524574326966e+01
flow[sink_29,sink_28] 1.6354166666667879e+01
flow[sink_29,sink_2] 1.6354166666684250e+01
flow[sink_2,sink_15] 0
flow[sink_29,innode_7] -1.4098102457434462e+02
flow[innode_4,sink_19] 4.9601927886228211e+01
flow[sink_19,innode_3] 4.6067865394833255e+01
flow[innode_4,innode_5] 7.7508585500833874e+01
flow[sink_27,innode_5] -7.7508585500833874e+01
flow[sink_27,sink_19] 61.1544188341672
flow[sink_10,sink_11] 3.2708333333333641e+01
flow[sink_10,innode_2] -4.8334314658895188e+01
flow[sink_10,innode_3] -4.6067865394833255e+01
flow[innode_6,sink_25] 1.2631346720394802e+01
flow[sink_11,innode_1] 1.6354166666666970e+01
flow[sink_19,innode_2] 4.8334314658895188e+01
flow[source_3,innode_4] 1.2711051338706208e+02
flow[source_2,innode_7] 1.4098102457434462e+02
flow[sink_3,innode_8] 1.6031282224213058e+02
pressure[innode_1] 7.6297380050312611e+01
pressure[innode_2] 79.0037495148963
pressure[innode_3] 7.8901737443599288e+01
pressure[innode_4] 81.01325
pressure[innode_5] 8.0959935507852151e+01
pressure[innode_6] 7.4183071606103809e+01
pressure[innode_7] 81.01325
pressure[innode_8] 80.3680540136653
pressure[source_1] 81.01325
pressure[source_2] 81.01325
pressure[source_3] 81.01325
pressure[sink_1] 4.2315699790734996e+01
pressure[sink_2] 7.6828290386701866e+01
pressure[sink_3] 80.3680540136653
pressure[sink_4] 5.9549433699700423e+01
pressure[sink_5] 3.6673318639874914e+01
pressure[sink_6] 4.4416777401122367e+01
pressure[sink_7] 4.3474888666769630e+01
pressure[sink_8] 5.7682343856682039e+01
pressure[sink_9] 5.2408637162010123e+01
pressure[sink_10] 7.6449081357916157e+01
pressure[sink_11] 7.6297380050312611e+01
pressure[sink_12] 1.01325
pressure[sink_13] 7.4252706109679210e+01
pressure[sink_14] 7.4304578154905158e+01
pressure[sink_15] 7.4549632373516218e+01
pressure[sink_16] 7.5275730215494931e+01
pressure[sink_17] 5.8299429052095661e+01
pressure[sink_18] 4.7559055433651238e+01
pressure[sink_19] 79.0037495148963
pressure[sink_20] 6.2075591078133442e+01
pressure[sink_21] 2.1505712796428642e+00
pressure[sink_22] 4.3379468933090010e+01
pressure[sink_23] 8.0203336002005514e+01
pressure[sink_24] 2.3670715087673559e+00
pressure[sink_25] 7.4183071606103809e+01
pressure[sink_26] 6.1409479374389278e+01
pressure[sink_27] 8.0316757468661592e+01
pressure[sink_28] 7.6947277611548344e+01
pressure[sink_29] 7.7242559885165520e+01
interdiction[source_1,sink_3] 0
interdiction[innode_1,sink_16] 0
interdiction[innode_6,sink_13] 0
interdiction[sink_13,sink_14] 0
interdiction[sink_14,sink_10] 0
interdiction[sink_25,sink_26] 0
interdiction[sink_26,sink_9] 0
interdiction[sink_9,sink_18] 0
interdiction[sink_26,sink_4] 0
interdiction[sink_4,sink_20] 0
interdiction[sink_18,sink_6] 0
interdiction[sink_25,innode_8] 0
interdiction[sink_6,sink_7] 0
interdiction[sink_6,sink_22] 0
interdiction[sink_7,sink_24] 0
interdiction[sink_22,sink_1] 0
interdiction[sink_24,sink_21] 0
interdiction[sink_21,sink_12] 0
interdiction[sink_7,sink_5] 0
interdiction[sink_5,sink_17] 1
interdiction[sink_17,sink_4] 0
interdiction[sink_17,sink_8] 0
interdiction[sink_3,sink_23] 0
interdiction[sink_8,sink_20] 1
interdiction[sink_25,sink_20] 0
interdiction[sink_25,sink_15] 0
interdiction[sink_15,sink_29] 0
interdiction[sink_29,sink_28] 0
interdiction[sink_29,sink_2] 0
interdiction[sink_2,sink_15] 1
interdiction[sink_29,innode_7] 0
interdiction[innode_4,sink_19] 0
interdiction[sink_19,innode_3] 0
interdiction[innode_4,innode_5] 0
interdiction[sink_27,innode_5] 0
interdiction[sink_27,sink_19] 0
interdiction[sink_10,sink_11] 0
interdiction[sink_10,innode_2] 0
interdiction[sink_10,innode_3] 0
interdiction[innode_6,sink_25] 0
interdiction[sink_11,innode_1] 0
interdiction[sink_19,innode_2] 0
interdiction[source_3,innode_4] 0
interdiction[source_2,innode_7] 0
interdiction[sink_3,innode_8] 0
WCcheckFlow[source_1,sink_3] 39
WCcheckFlow[innode_1,sink_16] 1
WCcheckFlow[innode_6,sink_13] 13
WCcheckFlow[sink_13,sink_14] 12
WCcheckFlow[sink_14,sink_10] 11
WCcheckFlow[sink_25,sink_26] 15
WCcheckFlow[sink_26,sink_9] 10
WCcheckFlow[sink_9,sink_18] 9
WCcheckFlow[sink_26,sink_4] 4
WCcheckFlow[sink_4,sink_20] 1
WCcheckFlow[sink_18,sink_6] 8
WCcheckFlow[sink_25,innode_8] -36
WCcheckFlow[sink_6,sink_7] 5
WCcheckFlow[sink_6,sink_22] 2
WCcheckFlow[sink_7,sink_24] 3
WCcheckFlow[sink_22,sink_1] 1
WCcheckFlow[sink_24,sink_21] 2
WCcheckFlow[sink_21,sink_12] 1
WCcheckFlow[sink_7,sink_5] 1
WCcheckFlow[sink_5,sink_17] 0
WCcheckFlow[sink_17,sink_4] -2
WCcheckFlow[sink_17,sink_8] 1
WCcheckFlow[sink_3,sink_23] 1
WCcheckFlow[sink_8,sink_20] 0
WCcheckFlow[sink_25,sink_20] 0
WCcheckFlow[sink_25,sink_15] 6
WCcheckFlow[sink_15,sink_29] 5
WCcheckFlow[sink_29,sink_28] 1
WCcheckFlow[sink_29,sink_2] 1
WCcheckFlow[sink_2,sink_15] 0
WCcheckFlow[sink_29,innode_7] 2
WCcheckFlow[innode_4,sink_19] -4
WCcheckFlow[sink_19,innode_3] -5
WCcheckFlow[innode_4,innode_5] 2
WCcheckFlow[sink_27,innode_5] -1
WCcheckFlow[sink_27,sink_19] 0
WCcheckFlow[sink_10,sink_11] 3
WCcheckFlow[sink_10,innode_2] 1
WCcheckFlow[sink_10,innode_3] 6
WCcheckFlow[innode_6,sink_25] -14
WCcheckFlow[sink_11,innode_1] 2
WCcheckFlow[sink_19,innode_2] 0
WCcheckFlow[source_3,innode_4] -1
WCcheckFlow[source_2,innode_7] -1
WCcheckFlow[sink_3,innode_8] 37
